nNewSkillsPerPerson = 2;
nMaxJobs = 20;
sSkills = sSkills = ["sk1","sk2","sk3","sk4","sk5","sk6","sk7","sk8","s... ]; // array too long to display, dimensions: (83)


engineer_skills = engineer_skills = engineer_skills = engineer_skills = [|0, 0, 0, 0, 0, 0, 0, 0, 0, 0, 0, 0, 1, 1, 1, 1, 1, 1, 1, 1, 1, 1, 1, 1, 1, 1, 1... ]; // array too long to display, dimensions: (30)
 // array too long to display, dimensions: (5396)


engineer_location = engineer_location = [0,3977,0,2572,3130,3073,0,0,0,0,0,0,0,3137,2066,6018,3178,3106,6107,3807,0,6069,... ]; // array too long to display, dimensions: (65)


jobs = jobs = jobs = jobs = [|69, 1, 5, 5010, 0|17, 1, 1, 4029, 0|44, 1, 2, 2067, 0|29, 1, 7, 5005, 0|37, 1, ... ]; // array too long to display, dimensions: (30)
 // array too long to display, dimensions: (2709)
